NAME:  test1
TYPE: AGTSP
COMMENT: gtsp tours
DIMENSION:  73
GTSP_SETS: 19
EDGE_WEIGHT_TYPE: EXPLICIT
EDGE_WEIGHT_FORMAT: FULL_MATRIX 
EDGE_WEIGHT_SECTION
999999	0	999999	999999	51423	51423	999999	999999	51393	51393	51385	999999	51418	51418	51418	51410	51426	51426	999999	999999	51401	51401	51401	51393	51405	51405	51405	51397	51424	51424	999999	999999	51395	51395	51387	999999	51402	51402	51402	51394	51399	51399	51391	999999	51410	51410	51410	51402	51426	51426	999999	999999	51400	51400	51392	999999	51418	51418	51418	51410	51405	51405	51405	51397	51403	51403	51403	51395	51415
999999	999999	0	999999	51423	51423	51423	999999	51393	51393	51393	51385	51418	51418	51418	999999	51426	51426	51426	999999	51401	51401	51401	999999	51405	51405	51405	999999	51424	51424	51424	999999	51395	51395	51395	51387	51402	51402	51402	999999	51399	51399	51399	51391	51410	51410	51410	999999	51426	51426	51426	999999	51400	51400	51400	51392	51418	51418	51418	999999	51405	51405	51405	999999	51403	51403	51403	999999	51415
999999	999999	999999	0	51423	51423	51423	51423	51393	51393	51393	51393	51418	51418	51418	51418	51426	51426	51426	51426	51401	51401	51401	51401	51405	51405	51405	51405	51424	51424	51424	51424	51395	51395	51395	51395	51402	51402	51402	51402	51399	51399	51399	51399	51410	51410	51410	51410	51426	51426	51426	51426	51400	51400	51400	51400	51418	51418	51418	51418	51405	51405	51405	51405	51403	51403	51403	51403	51415
0	999999	999999	999999	51423	51423	51423	51415	51393	51385	999999	999999	51418	51418	51410	999999	51426	51426	51426	51418	51401	51401	51393	999999	51405	51405	51397	999999	51424	51424	51424	51416	51395	51387	999999	999999	51402	51402	51394	999999	51399	51391	999999	999999	51410	51410	51402	999999	51426	51426	51426	51418	51400	51392	999999	999999	51418	51418	51410	999999	51405	51405	51397	999999	51403	51403	51395	999999	51415
51423	51423	999999	999999	999999	0	999999	999999	51432	51432	999999	999999	51384	51384	51376	999999	51408	51408	51408	51400	51404	51404	51404	51396	51424	51424	999999	999999	51380	51380	51372	999999	51418	51418	51418	51410	51431	51431	999999	999999	51431	51431	999999	999999	51392	51392	51384	999999	51394	51394	51386	999999	51404	51404	51404	51396	51407	51407	51407	51399	51406	51406	51406	51398	51438	51438	999999	999999	51396
51423	51423	51423	999999	999999	999999	0	999999	51432	51432	51432	999999	51384	51384	51384	51376	51408	51408	51408	999999	51404	51404	51404	999999	51424	51424	51424	999999	51380	51380	51380	51372	51418	51418	51418	999999	51431	51431	51431	999999	51431	51431	51431	999999	51392	51392	51392	51384	51394	51394	51394	51386	51404	51404	51404	999999	51407	51407	51407	999999	51406	51406	51406	999999	51438	51438	51438	999999	51396
51423	51423	51423	51423	999999	999999	999999	0	51432	51432	51432	51432	51384	51384	51384	51384	51408	51408	51408	51408	51404	51404	51404	51404	51424	51424	51424	51424	51380	51380	51380	51380	51418	51418	51418	51418	51431	51431	51431	51431	51431	51431	51431	51431	51392	51392	51392	51392	51394	51394	51394	51394	51404	51404	51404	51404	51407	51407	51407	51407	51406	51406	51406	51406	51438	51438	51438	51438	51396
51423	51423	51423	51415	0	999999	999999	999999	51432	51432	51432	51424	51384	51376	999999	999999	51408	51408	51400	999999	51404	51404	51396	999999	51424	51424	51424	51416	51380	51372	999999	999999	51418	51418	51410	999999	51431	51431	51431	51423	51431	51431	51431	51423	51392	51384	999999	999999	51394	51386	999999	999999	51404	51404	51396	999999	51407	51407	51399	999999	51406	51406	51398	999999	51438	51438	51438	51430	51396
51393	51393	51385	999999	51432	51432	999999	999999	999999	0	999999	999999	51429	51429	999999	999999	51427	51427	999999	999999	51407	51407	51407	51399	51419	51419	51419	51411	51433	51433	999999	999999	51409	51409	51409	51401	51415	51415	51415	51407	51387	51387	51379	999999	51419	51419	51419	51411	51432	51432	999999	999999	51413	51413	51413	51405	51432	51432	999999	999999	51420	51420	51420	51412	51389	51389	51381	999999	51428
51393	51393	51393	51385	51432	51432	51432	999999	999999	999999	0	999999	51429	51429	51429	999999	51427	51427	51427	999999	51407	51407	51407	999999	51419	51419	51419	999999	51433	51433	51433	999999	51409	51409	51409	999999	51415	51415	51415	999999	51387	51387	51387	51379	51419	51419	51419	999999	51432	51432	51432	999999	51413	51413	51413	999999	51432	51432	51432	999999	51420	51420	51420	999999	51389	51389	51389	51381	51428
51393	51393	51393	51393	51432	51432	51432	51432	999999	999999	999999	0	51429	51429	51429	51429	51427	51427	51427	51427	51407	51407	51407	51407	51419	51419	51419	51419	51433	51433	51433	51433	51409	51409	51409	51409	51415	51415	51415	51415	51387	51387	51387	51387	51419	51419	51419	51419	51432	51432	51432	51432	51413	51413	51413	51413	51432	51432	51432	51432	51420	51420	51420	51420	51389	51389	51389	51389	51428
51393	51385	999999	999999	51432	51432	51432	51424	0	999999	999999	999999	51429	51429	51429	51421	51427	51427	51427	51419	51407	51407	51399	999999	51419	51419	51411	999999	51433	51433	51433	51425	51409	51409	51401	999999	51415	51415	51407	999999	51387	51379	999999	999999	51419	51419	51411	999999	51432	51432	51432	51424	51413	51413	51405	999999	51432	51432	51432	51424	51420	51420	51412	999999	51389	51381	999999	999999	51428
51418	51418	51418	51410	51384	51384	51376	999999	51429	51429	999999	999999	999999	0	999999	999999	51411	51411	51411	51403	51401	51401	51401	51393	51418	51418	51418	51410	51386	51386	51378	999999	51413	51413	51413	51405	51425	51425	999999	999999	51429	51429	999999	999999	51388	51388	51380	999999	51398	51398	51390	999999	51399	51399	51391	999999	51402	51402	51402	51394	51401	51401	51401	51393	51435	51435	999999	999999	51391
51418	51418	51418	999999	51384	51384	51384	51376	51429	51429	51429	999999	999999	999999	0	999999	51411	51411	51411	999999	51401	51401	51401	999999	51418	51418	51418	999999	51386	51386	51386	51378	51413	51413	51413	999999	51425	51425	51425	999999	51429	51429	51429	999999	51388	51388	51388	51380	51398	51398	51398	51390	51399	51399	51399	51391	51402	51402	51402	999999	51401	51401	51401	999999	51435	51435	51435	999999	51391
51418	51418	51418	51418	51384	51384	51384	51384	51429	51429	51429	51429	999999	999999	999999	0	51411	51411	51411	51411	51401	51401	51401	51401	51418	51418	51418	51418	51386	51386	51386	51386	51413	51413	51413	51413	51425	51425	51425	51425	51429	51429	51429	51429	51388	51388	51388	51388	51398	51398	51398	51398	51399	51399	51399	51399	51402	51402	51402	51402	51401	51401	51401	51401	51435	51435	51435	51435	51391
51418	51418	51410	999999	51384	51376	999999	999999	51429	51429	51429	51421	0	999999	999999	999999	51411	51411	51403	999999	51401	51401	51393	999999	51418	51418	51410	999999	51386	51378	999999	999999	51413	51413	51405	999999	51425	51425	51425	51417	51429	51429	51429	51421	51388	51380	999999	999999	51398	51390	999999	999999	51399	51391	999999	999999	51402	51402	51394	999999	51401	51401	51393	999999	51435	51435	51435	51427	51391
51426	51426	999999	999999	51408	51408	51408	51400	51427	51427	999999	999999	51411	51411	51411	51403	999999	0	999999	999999	51405	51405	51405	51397	51441	51441	999999	999999	51407	51407	51407	51399	51431	51431	999999	999999	51444	51444	999999	999999	51422	51422	999999	999999	51407	51407	51407	51399	51394	51394	51386	999999	51419	51419	51419	51411	51433	51433	999999	999999	51426	51426	999999	999999	51428	51428	999999	999999	51421
51426	51426	51426	999999	51408	51408	51408	999999	51427	51427	51427	999999	51411	51411	51411	999999	999999	999999	0	999999	51405	51405	51405	999999	51441	51441	51441	999999	51407	51407	51407	999999	51431	51431	51431	999999	51444	51444	51444	999999	51422	51422	51422	999999	51407	51407	51407	999999	51394	51394	51394	51386	51419	51419	51419	999999	51433	51433	51433	999999	51426	51426	51426	999999	51428	51428	51428	999999	51421
51426	51426	51426	51426	51408	51408	51408	51408	51427	51427	51427	51427	51411	51411	51411	51411	999999	999999	999999	0	51405	51405	51405	51405	51441	51441	51441	51441	51407	51407	51407	51407	51431	51431	51431	51431	51444	51444	51444	51444	51422	51422	51422	51422	51407	51407	51407	51407	51394	51394	51394	51394	51419	51419	51419	51419	51433	51433	51433	51433	51426	51426	51426	51426	51428	51428	51428	51428	51421
51426	51426	51426	51418	51408	51408	51400	999999	51427	51427	51427	51419	51411	51411	51403	999999	0	999999	999999	999999	51405	51405	51397	999999	51441	51441	51441	51433	51407	51407	51399	999999	51431	51431	51431	51423	51444	999999	999999	999999	51422	51422	51422	51414	51407	51407	51399	999999	51394	51386	999999	999999	51419	51419	51411	999999	51433	51433	51433	51425	51426	51426	51426	51418	51428	51428	51428	51420	51421
51401	51401	51401	51393	51404	51404	51404	51396	51407	51407	51407	51399	51401	51401	51401	51393	51405	51405	51405	51397	999999	0	999999	999999	51416	51416	51416	51408	51405	51405	51405	51397	51405	51405	51405	51397	51418	51418	51418	51410	51406	51406	51406	51398	51392	51392	51384	999999	51404	51404	51404	51396	51395	51395	51387	999999	51414	51414	51414	51406	51404	51404	51404	51396	51413	51413	51413	51405	51405
51401	51401	51401	999999	51404	51404	51404	999999	51407	51407	51407	999999	51401	51401	51401	999999	51405	51405	51405	999999	999999	999999	0	999999	51416	51416	51416	999999	51405	51405	51405	999999	51405	51405	51405	999999	51418	51418	51418	999999	51406	51406	51406	999999	51392	51392	51392	51384	51404	51404	51404	999999	51395	51395	51395	51387	51414	51414	51414	999999	51404	51404	51404	999999	51413	51413	51413	999999	51405
51401	51401	51401	51401	51404	51404	51404	51404	51407	51407	51407	51407	51401	51401	51401	51401	51405	51405	51405	51405	999999	999999	999999	0	51416	51416	51416	51416	51405	51405	51405	51405	51405	51405	51405	51405	51418	51418	51418	51418	51406	51406	51406	51406	51392	51392	51392	51392	51404	51404	51404	51404	51395	51395	51395	51395	51414	51414	51414	51414	51404	51404	51404	51404	51413	51413	51413	51413	51405
51401	51401	51393	999999	51404	51404	51396	999999	51407	51407	51399	999999	51401	51401	51393	999999	51405	51405	51397	999999	0	999999	999999	999999	51416	51416	51408	999999	51405	51405	51397	999999	51405	51405	51397	999999	51418	51418	51410	999999	51406	51406	51398	999999	51392	51384	999999	999999	51404	51404	51396	999999	51395	51387	999999	999999	51414	51414	51406	999999	51404	51404	51396	999999	51413	51413	51405	999999	51405
51405	51405	51405	51397	51424	51424	999999	999999	51419	51419	51419	51411	51418	51418	51418	51410	51441	51441	999999	999999	51416	51416	51416	51408	999999	0	999999	999999	51426	51426	999999	999999	51390	51390	51382	999999	51388	51388	51380	999999	51425	51425	999999	999999	51415	51415	51415	51407	51435	51435	999999	999999	51401	51401	51401	51393	51403	51403	51403	51395	51396	51396	51388	999999	51429	51429	999999	999999	51408
51405	51405	51405	999999	51424	51424	51424	999999	51419	51419	51419	999999	51418	51418	51418	999999	51441	51441	51441	999999	51416	51416	51416	999999	999999	999999	0	999999	51426	51426	51426	999999	51390	51390	51390	51382	51388	51388	51388	51380	51425	51425	51425	999999	51415	51415	51415	999999	51435	51435	51435	999999	51401	51401	51401	999999	51403	51403	51403	999999	51396	51396	51396	51388	51429	51429	51429	999999	51408
51405	51405	51405	51405	51424	51424	51424	51424	51419	51419	51419	51419	51418	51418	51418	51418	51441	51441	51441	51441	51416	51416	51416	51416	999999	999999	999999	0	51426	51426	51426	51426	51390	51390	51390	51390	51388	51388	51388	51388	51425	51425	51425	51425	51415	51415	51415	51415	51435	51435	51435	51435	51401	51401	51401	51401	51403	51403	51403	51403	51396	51396	51396	51396	51429	51429	51429	51429	51408
51405	51405	51397	999999	51424	51424	51424	51416	51419	51419	51411	999999	51418	51418	51410	999999	51441	51441	51441	51433	51416	51416	51408	999999	0	999999	999999	999999	51426	51426	51426	51418	51390	51382	999999	999999	51388	51380	999999	999999	51425	51425	51425	51417	51415	51415	51407	999999	51435	51435	51435	51427	51401	51401	51393	999999	51403	51403	51395	999999	51396	51388	999999	999999	51429	51429	51429	51421	51408
51424	51424	999999	999999	51380	51380	51372	999999	51433	51433	999999	999999	51386	51386	51378	999999	51407	51407	51407	51399	51405	51405	51405	51397	51426	51426	999999	999999	999999	0	999999	999999	51419	51419	51419	51411	51432	51432	999999	999999	51432	51432	999999	999999	51393	51393	51385	999999	51393	51393	51385	999999	51405	51405	51405	51397	51409	51409	51409	51401	51408	51408	51408	51400	51439	51439	999999	999999	51398
51424	51424	51424	999999	51380	51380	51380	51372	51433	51433	51433	999999	51386	51386	51386	51378	51407	51407	51407	999999	51405	51405	51405	999999	51426	51426	51426	999999	999999	999999	0	999999	51419	51419	51419	999999	51432	51432	51432	999999	51432	51432	51432	999999	51393	51393	51393	51385	51393	51393	51393	51385	51405	51405	51405	999999	51409	51409	51409	999999	51408	51408	51408	999999	51439	51439	51439	999999	51398
51424	51424	51424	51424	51380	51380	51380	51380	51433	51433	51433	51433	51386	51386	51386	51386	51407	51407	51407	51407	51405	51405	51405	51405	51426	51426	51426	51426	999999	999999	999999	0	51419	51419	51419	51419	51432	51432	51432	51432	51432	51432	51432	51432	51393	51393	51393	51393	51393	51393	51393	51393	51405	51405	51405	51405	51409	51409	51409	51409	51408	51408	51408	51408	51439	51439	51439	51439	51398
51424	51424	51424	51416	51380	51372	999999	999999	51433	51433	51433	51425	51386	51378	999999	999999	51407	51407	51399	999999	51405	51405	51397	999999	51426	51426	51426	51418	0	999999	999999	999999	51419	51419	51411	999999	51432	51432	51432	51424	51432	51432	51432	51424	51393	51385	999999	999999	51393	51385	999999	999999	51405	51405	51397	999999	51409	51409	51401	999999	51408	51408	51400	999999	51439	51439	51439	51431	51398
51395	51395	51387	999999	51418	51418	51418	51410	51409	51409	51409	51401	51413	51413	51413	51405	51431	51431	999999	999999	51405	51405	51405	51397	51390	51390	51382	999999	51419	51419	51419	51411	999999	0	999999	999999	51392	51392	51384	999999	51415	51415	51415	51407	51407	51407	51407	51399	51426	51426	999999	999999	51393	51393	51385	999999	51404	51404	51404	51396	51393	51393	51385	999999	51419	51419	51419	51411	51405
51395	51395	51395	51387	51418	51418	51418	999999	51409	51409	51409	999999	51413	51413	51413	999999	51431	51431	51431	999999	51405	51405	51405	999999	51390	51390	51390	51382	51419	51419	51419	999999	999999	999999	0	999999	51392	51392	51392	51384	51415	51415	51415	999999	51407	51407	51407	999999	51426	51426	51426	999999	51393	51393	51393	51385	51404	51404	51404	999999	51393	51393	51393	51385	51419	51419	51419	999999	51405
51395	51395	51395	51395	51418	51418	51418	51418	51409	51409	51409	51409	51413	51413	51413	51413	51431	51431	51431	51431	51405	51405	51405	51405	51390	51390	51390	51390	51419	51419	51419	51419	999999	999999	999999	0	51392	51392	51392	51392	51415	51415	51415	51415	51407	51407	51407	51407	51426	51426	51426	51426	51393	51393	51393	51393	51404	51404	51404	51404	51393	51393	51393	51393	51419	51419	51419	51419	51405
51395	51387	999999	999999	51418	51418	51410	999999	51409	51409	51401	999999	51413	51413	51405	999999	51431	51431	51431	51423	51405	51405	51397	999999	51390	51382	999999	999999	51419	51419	51411	999999	0	999999	999999	999999	51392	51384	999999	999999	51415	51415	51407	999999	51407	51407	51399	999999	51426	51426	51426	51418	51393	51385	999999	999999	51404	51404	51396	999999	51393	51385	999999	999999	51419	51419	51411	999999	51405
51402	51402	51402	51394	51431	51431	999999	999999	51415	51415	51415	51407	51425	51425	999999	999999	51444	51444	999999	999999	51418	51418	51418	51410	51388	51388	51380	999999	51432	51432	999999	999999	51392	51392	51384	999999	999999	0	999999	999999	51422	51422	999999	999999	51420	51420	51420	51412	51440	51440	999999	999999	51406	51406	51406	51398	51412	51412	51412	51404	51404	51404	51404	51396	51425	51425	999999	999999	51416
51402	51402	51402	999999	51431	51431	51431	999999	51415	51415	51415	999999	51425	51425	51425	999999	51444	51444	51444	999999	51418	51418	51418	999999	51388	51388	51388	51380	51432	51432	51432	999999	51392	51392	51392	51384	999999	999999	0	999999	51422	51422	51422	999999	51420	51420	51420	999999	51440	51440	51440	999999	51406	51406	51406	999999	51412	51412	51412	999999	51404	51404	51404	999999	51425	51425	51425	999999	51416
51402	51402	51402	51402	51431	51431	51431	51431	51415	51415	51415	51415	51425	51425	51425	51425	51444	51444	51444	51444	51418	51418	51418	51418	51388	51388	51388	51388	51432	51432	51432	51432	51392	51392	51392	51392	999999	999999	999999	0	51422	51422	51422	51422	51420	51420	51420	51420	51440	51440	51440	51440	51406	51406	51406	51406	51412	51412	51412	51412	51404	51404	51404	51404	51425	51425	51425	51425	51416
51402	51402	51394	999999	51431	51431	51431	51423	51415	51415	51407	999999	51425	51425	51425	51417	51444	999999	999999	999999	51418	51418	51410	999999	51388	51380	999999	999999	51432	51432	51432	51424	51392	51384	999999	999999	0	999999	999999	999999	51422	51422	51422	51414	51420	51420	51412	999999	51440	51440	51440	51432	51406	51406	51398	999999	51412	51412	51404	999999	51404	51404	51396	999999	51425	51425	51425	51417	51416
51399	51399	51391	999999	51431	51431	999999	999999	51387	51387	51379	999999	51429	51429	999999	999999	51422	51422	999999	999999	51406	51406	51406	51398	51425	51425	999999	999999	51432	51432	999999	999999	51415	51415	51415	51407	51422	51422	999999	999999	999999	0	999999	999999	51419	51419	51419	51411	51428	51428	999999	999999	51415	51415	51415	51407	51436	51436	999999	999999	51423	51423	999999	999999	51385	51385	51377	999999	51430
51399	51399	51399	51391	51431	51431	51431	999999	51387	51387	51387	51379	51429	51429	51429	999999	51422	51422	51422	999999	51406	51406	51406	999999	51425	51425	51425	999999	51432	51432	51432	999999	51415	51415	51415	999999	51422	51422	51422	999999	999999	999999	0	999999	51419	51419	51419	999999	51428	51428	51428	999999	51415	51415	51415	999999	51436	51436	51436	999999	51423	51423	51423	999999	51385	51385	51385	51377	51430
51399	51399	51399	51399	51431	51431	51431	51431	51387	51387	51387	51387	51429	51429	51429	51429	51422	51422	51422	51422	51406	51406	51406	51406	51425	51425	51425	51425	51432	51432	51432	51432	51415	51415	51415	51415	51422	51422	51422	51422	999999	999999	999999	0	51419	51419	51419	51419	51428	51428	51428	51428	51415	51415	51415	51415	51436	51436	51436	51436	51423	51423	51423	51423	51385	51385	51385	51385	51430
51399	51391	999999	999999	51431	51431	51431	51423	51387	51379	999999	999999	51429	51429	51429	51421	51422	51422	51422	51414	51406	51406	51398	999999	51425	51425	51425	51417	51432	51432	51432	51424	51415	51415	51407	999999	51422	51422	51422	51414	0	999999	999999	999999	51419	51419	51411	999999	51428	51428	51428	51420	51415	51415	51407	999999	51436	51436	51436	51428	51423	51423	51423	51415	51385	51377	999999	999999	51430
51410	51410	51410	51402	51392	51392	51384	999999	51419	51419	51419	51411	51388	51388	51380	999999	51407	51407	51407	51399	51392	51392	51384	999999	51415	51415	51415	51407	51393	51393	51385	999999	51407	51407	51407	51399	51420	51420	51420	51412	51419	51419	51419	51411	999999	0	999999	999999	51398	51398	51390	999999	51392	51392	51384	999999	51405	51405	51405	51397	51398	51398	51390	999999	51426	51426	999999	999999	51394
51410	51410	51410	999999	51392	51392	51392	51384	51419	51419	51419	999999	51388	51388	51388	51380	51407	51407	51407	999999	51392	51392	51392	51384	51415	51415	51415	999999	51393	51393	51393	51385	51407	51407	51407	999999	51420	51420	51420	999999	51419	51419	51419	999999	999999	999999	0	999999	51398	51398	51398	51390	51392	51392	51392	51384	51405	51405	51405	999999	51398	51398	51398	51390	51426	51426	51426	999999	51394
51410	51410	51410	51410	51392	51392	51392	51392	51419	51419	51419	51419	51388	51388	51388	51388	51407	51407	51407	51407	51392	51392	51392	51392	51415	51415	51415	51415	51393	51393	51393	51393	51407	51407	51407	51407	51420	51420	51420	51420	51419	51419	51419	51419	999999	999999	999999	0	51398	51398	51398	51398	51392	51392	51392	51392	51405	51405	51405	51405	51398	51398	51398	51398	51426	51426	51426	51426	51394
51410	51410	51402	999999	51392	51384	999999	999999	51419	51419	51411	999999	51388	51380	999999	999999	51407	51407	51399	999999	51392	51384	999999	999999	51415	51415	51407	999999	51393	51385	999999	999999	51407	51407	51399	999999	51420	51420	51412	999999	51419	51419	51411	999999	0	999999	999999	999999	51398	51390	999999	999999	51392	51384	999999	999999	51405	51405	51397	999999	51398	51390	999999	999999	51426	51426	51426	51418	51394
51426	51426	999999	999999	51394	51394	51386	999999	51432	51432	999999	999999	51398	51398	51390	999999	51394	51394	51386	999999	51404	51404	51404	51396	51435	51435	999999	999999	51393	51393	51385	999999	51426	51426	999999	999999	51440	51440	999999	999999	51428	51428	999999	999999	51398	51398	51390	999999	999999	0	999999	999999	51412	51412	51412	51404	51422	51422	999999	999999	51418	51418	51418	51410	51435	51435	999999	999999	51410
51426	51426	51426	999999	51394	51394	51394	51386	51432	51432	51432	999999	51398	51398	51398	51390	51394	51394	51394	51386	51404	51404	51404	999999	51435	51435	51435	999999	51393	51393	51393	51385	51426	51426	51426	999999	51440	51440	51440	999999	51428	51428	51428	999999	51398	51398	51398	51390	999999	999999	0	999999	51412	51412	51412	999999	51422	51422	51422	999999	51418	51418	51418	999999	51435	51435	51435	999999	51410
51426	51426	51426	51426	51394	51394	51394	51394	51432	51432	51432	51432	51398	51398	51398	51398	51394	51394	51394	51394	51404	51404	51404	51404	51435	51435	51435	51435	51393	51393	51393	51393	51426	51426	51426	51426	51440	51440	51440	51440	51428	51428	51428	51428	51398	51398	51398	51398	999999	999999	999999	0	51412	51412	51412	51412	51422	51422	51422	51422	51418	51418	51418	51418	51435	51435	51435	51435	51410
51426	51426	51426	51418	51394	51386	999999	999999	51432	51432	51432	51424	51398	51390	999999	999999	51394	51386	999999	999999	51404	51404	51396	999999	51435	51435	51435	51427	51393	51385	999999	999999	51426	51426	51426	51418	51440	51440	51440	51432	51428	51428	51428	51420	51398	51390	999999	999999	0	999999	999999	999999	51412	51412	51404	999999	51422	51422	51422	51414	51418	51418	51410	999999	51435	51435	51435	51427	51410
51400	51400	51392	999999	51404	51404	51404	51396	51413	51413	51413	51405	51399	51399	51391	999999	51419	51419	51419	51411	51395	51395	51387	999999	51401	51401	51401	51393	51405	51405	51405	51397	51393	51393	51385	999999	51406	51406	51406	51398	51415	51415	51415	51407	51392	51392	51384	999999	51412	51412	51412	51404	999999	0	999999	999999	51400	51400	51392	999999	51388	51388	51380	999999	51421	51421	999999	999999	51394
51400	51400	51400	51392	51404	51404	51404	999999	51413	51413	51413	999999	51399	51399	51399	51391	51419	51419	51419	999999	51395	51395	51395	51387	51401	51401	51401	999999	51405	51405	51405	999999	51393	51393	51393	51385	51406	51406	51406	999999	51415	51415	51415	999999	51392	51392	51392	51384	51412	51412	51412	999999	999999	999999	0	999999	51400	51400	51400	51392	51388	51388	51388	51380	51421	51421	51421	999999	51394
51400	51400	51400	51400	51404	51404	51404	51404	51413	51413	51413	51413	51399	51399	51399	51399	51419	51419	51419	51419	51395	51395	51395	51395	51401	51401	51401	51401	51405	51405	51405	51405	51393	51393	51393	51393	51406	51406	51406	51406	51415	51415	51415	51415	51392	51392	51392	51392	51412	51412	51412	51412	999999	999999	999999	0	51400	51400	51400	51400	51388	51388	51388	51388	51421	51421	51421	51421	51394
51400	51392	999999	999999	51404	51404	51396	999999	51413	51413	51405	999999	51399	51391	999999	999999	51419	51419	51411	999999	51395	51387	999999	999999	51401	51401	51393	999999	51405	51405	51397	999999	51393	51385	999999	999999	51406	51406	51398	999999	51415	51415	51407	999999	51392	51384	999999	999999	51412	51412	51404	999999	0	999999	999999	999999	51400	51392	999999	999999	51388	51380	999999	999999	51421	51421	51421	51413	51394
51418	51418	51418	51410	51407	51407	51407	51399	51432	51432	999999	999999	51402	51402	51402	51394	51433	51433	999999	999999	51414	51414	51414	51406	51403	51403	51403	51395	51409	51409	51409	51401	51404	51404	51404	51396	51412	51412	51412	51404	51436	51436	999999	999999	51405	51405	51405	51397	51422	51422	999999	999999	51400	51400	51392	999999	999999	0	999999	999999	51391	51391	51383	999999	51442	51442	999999	999999	51390
51418	51418	51418	999999	51407	51407	51407	999999	51432	51432	51432	999999	51402	51402	51402	999999	51433	51433	51433	999999	51414	51414	51414	999999	51403	51403	51403	999999	51409	51409	51409	999999	51404	51404	51404	999999	51412	51412	51412	999999	51436	51436	51436	999999	51405	51405	51405	999999	51422	51422	51422	999999	51400	51400	51400	51392	999999	999999	0	999999	51391	51391	51391	51383	51442	51442	51442	999999	51390
51418	51418	51418	51418	51407	51407	51407	51407	51432	51432	51432	51432	51402	51402	51402	51402	51433	51433	51433	51433	51414	51414	51414	51414	51403	51403	51403	51403	51409	51409	51409	51409	51404	51404	51404	51404	51412	51412	51412	51412	51436	51436	51436	51436	51405	51405	51405	51405	51422	51422	51422	51422	51400	51400	51400	51400	999999	999999	999999	0	51391	51391	51391	51391	51442	51442	51442	51442	51390
51418	51418	51410	999999	51407	51407	51399	999999	51432	51432	51432	51424	51402	51402	51394	999999	51433	51433	51433	51425	51414	51414	51406	999999	51403	51403	51395	999999	51409	51409	51401	999999	51404	51404	51396	999999	51412	51412	51404	999999	51436	51436	51436	51428	51405	51405	51397	999999	51422	51422	51422	51414	51400	51392	999999	999999	0	999999	999999	999999	51391	51383	999999	999999	51442	51442	51442	51434	51390
51405	51405	51405	51397	51406	51406	51406	51398	51420	51420	51420	51412	51401	51401	51401	51393	51426	51426	999999	999999	51404	51404	51404	51396	51396	51396	51388	999999	51408	51408	51408	51400	51393	51393	51385	999999	51404	51404	51404	51396	51423	51423	999999	999999	51398	51398	51390	999999	51418	51418	51418	51410	51388	51388	51380	999999	51391	51391	51383	999999	999999	0	999999	999999	51429	51429	999999	999999	51391
51405	51405	51405	999999	51406	51406	51406	999999	51420	51420	51420	999999	51401	51401	51401	999999	51426	51426	51426	999999	51404	51404	51404	999999	51396	51396	51396	51388	51408	51408	51408	999999	51393	51393	51393	51385	51404	51404	51404	999999	51423	51423	51423	999999	51398	51398	51398	51390	51418	51418	51418	999999	51388	51388	51388	51380	51391	51391	51391	51383	999999	999999	0	999999	51429	51429	51429	999999	51391
51405	51405	51405	51405	51406	51406	51406	51406	51420	51420	51420	51420	51401	51401	51401	51401	51426	51426	51426	51426	51404	51404	51404	51404	51396	51396	51396	51396	51408	51408	51408	51408	51393	51393	51393	51393	51404	51404	51404	51404	51423	51423	51423	51423	51398	51398	51398	51398	51418	51418	51418	51418	51388	51388	51388	51388	51391	51391	51391	51391	999999	999999	999999	0	51429	51429	51429	51429	51391
51405	51405	51397	999999	51406	51406	51398	999999	51420	51420	51412	999999	51401	51401	51393	999999	51426	51426	51426	51418	51404	51404	51396	999999	51396	51388	999999	999999	51408	51408	51400	999999	51393	51385	999999	999999	51404	51404	51396	999999	51423	51423	51423	51415	51398	51390	999999	999999	51418	51418	51410	999999	51388	51380	999999	999999	51391	51383	999999	999999	0	999999	999999	999999	51429	51429	51429	51421	51391
51403	51403	51403	51395	51438	51438	999999	999999	51389	51389	51381	999999	51435	51435	999999	999999	51428	51428	999999	999999	51413	51413	51413	51405	51429	51429	999999	999999	51439	51439	999999	999999	51419	51419	51419	51411	51425	51425	999999	999999	51385	51385	51377	999999	51426	51426	999999	999999	51435	51435	999999	999999	51421	51421	999999	999999	51442	51442	999999	999999	51429	51429	999999	999999	999999	0	999999	999999	51436
51403	51403	51403	999999	51438	51438	51438	999999	51389	51389	51389	51381	51435	51435	51435	999999	51428	51428	51428	999999	51413	51413	51413	999999	51429	51429	51429	999999	51439	51439	51439	999999	51419	51419	51419	999999	51425	51425	51425	999999	51385	51385	51385	51377	51426	51426	51426	999999	51435	51435	51435	999999	51421	51421	51421	999999	51442	51442	51442	999999	51429	51429	51429	999999	999999	999999	0	999999	51436
51403	51403	51403	51403	51438	51438	51438	51438	51389	51389	51389	51389	51435	51435	51435	51435	51428	51428	51428	51428	51413	51413	51413	51413	51429	51429	51429	51429	51439	51439	51439	51439	51419	51419	51419	51419	51425	51425	51425	51425	51385	51385	51385	51385	51426	51426	51426	51426	51435	51435	51435	51435	51421	51421	51421	51421	51442	51442	51442	51442	51429	51429	51429	51429	999999	999999	999999	0	51436
51403	51403	51395	999999	51438	51438	51438	51430	51389	51381	999999	999999	51435	51435	51435	51427	51428	51428	51428	51420	51413	51413	51405	999999	51429	51429	51429	51421	51439	51439	51439	51431	51419	51419	51411	999999	51425	51425	51425	51417	51385	51377	999999	999999	51426	51426	51426	51418	51435	51435	51435	51427	51421	51421	51421	51413	51442	51442	51442	51434	51429	51429	51429	51421	0	999999	999999	999999	51436
51415	51415	51415	51407	51396	51396	51388	999999	51428	51428	999999	999999	51391	51391	51383	999999	51421	51421	999999	999999	51405	51405	51405	51397	51408	51408	51408	51400	51398	51398	51390	999999	51405	51405	51405	51397	51416	51416	51416	51408	51430	51430	999999	999999	51394	51394	51386	999999	51410	51410	51410	51402	51394	51394	51386	999999	51390	51390	51382	999999	51391	51391	51383	999999	51436	51436	999999	999999	999999
GTSP_SET_SECTION:
1 1 2 3 4 -1
2 5 6 7 8 -1
3 9 10 11 12 -1
4 13 14 15 16 -1
5 17 18 19 20 -1
6 21 22 23 24 -1
7 25 26 27 28 -1
8 29 30 31 32 -1
9 33 34 35 36 -1
10 37 38 39 40 -1
11 41 42 43 44 -1
12 45 46 47 48 -1
13 49 50 51 52 -1
14 53 54 55 56 -1
15 57 58 59 60 -1
16 61 62 63 64 -1
17 65 66 67 68 -1
18 69 70 71 72-1
19 73 -1
EOF